highs_input_lp.mps
NAME 
ROWS
 N  OBJ
 G  R0      
 G  R1      
 G  R2      
 G  R3      
 G  R4      
 G  R5      
 G  R6      
 G  R7      
 G  R8      
 G  R9      
 G  R10     
 G  R11     
 G  R12     
 G  R13     
 G  R14     
 G  R15     
 G  R16     
 G  R17     
 G  R18     
 G  R19     
 G  R20     
 G  R21     
 G  R22     
 G  R23     
 G  R24     
 G  R25     
 G  R26     
 G  R27     
 G  R28     
 G  R29     
 G  R30     
 G  R31     
 G  R32     
 G  R33     
 G  R34     
 G  R35     
 G  R36     
COLUMNS
    x0        OBJ       1
    x0        R0        1
    x0        R1        1
    x0        R2        1
    x0        R3        1
    x0        R6        1
    x0        R9        4
    x0        R10       1
    x0        R11       2
    x0        R12       2
    x0        R13       2
    x0        R14       2
    x0        R15       2
    x0        R16       2
    x0        R17       2
    x0        R18       2
    x0        R19       3
    x0        R20       4
    x0        R21       4
    x0        R22       4
    x0        R23       4
    x0        R24       4
    x0        R25       4
    x0        R26       4
    x0        R27       4
    x0        R28       2
    x0        R29       3
    x0        R30       3
    x0        R31       3
    x0        R32       3
    x0        R33       3
    x0        R34       3
    x0        R35       3
    x0        R36       3
    x1        OBJ       1
    x1        R0        1
    x1        R1        1
    x1        R2        1
    x1        R4        1
    x1        R7        1
    x1        R9        4
    x1        R10       2
    x1        R11       2
    x1        R12       2
    x1        R13       2
    x1        R14       2
    x1        R15       2
    x1        R16       1
    x1        R17       2
    x1        R18       2
    x1        R19       4
    x1        R20       4
    x1        R21       4
    x1        R22       4
    x1        R23       4
    x1        R24       4
    x1        R25       3
    x1        R26       4
    x1        R27       4
    x1        R28       3
    x1        R29       3
    x1        R30       3
    x1        R31       3
    x1        R32       3
    x1        R33       3
    x1        R34       2
    x1        R35       3
    x1        R36       3
    x2        OBJ       1
    x2        R0        1
    x2        R1        1
    x2        R2        1
    x2        R5        1
    x2        R8        1
    x2        R9        4
    x2        R10       2
    x2        R11       2
    x2        R12       2
    x2        R13       2
    x2        R14       1
    x2        R15       2
    x2        R16       2
    x2        R17       2
    x2        R18       2
    x2        R19       4
    x2        R20       4
    x2        R21       4
    x2        R22       4
    x2        R23       3
    x2        R24       4
    x2        R25       4
    x2        R26       4
    x2        R27       4
    x2        R28       3
    x2        R29       3
    x2        R30       3
    x2        R31       3
    x2        R32       2
    x2        R33       3
    x2        R34       3
    x2        R35       3
    x2        R36       3
    x3        OBJ       1
    x3        R0        1
    x3        R3        1
    x3        R4        1
    x3        R5        1
    x3        R6        1
    x3        R9        4
    x3        R10       2
    x3        R11       2
    x3        R12       2
    x3        R13       2
    x3        R14       2
    x3        R15       2
    x3        R16       2
    x3        R17       2
    x3        R18       1
    x3        R19       4
    x3        R20       4
    x3        R21       4
    x3        R22       4
    x3        R23       4
    x3        R24       4
    x3        R25       4
    x3        R26       4
    x3        R27       3
    x3        R28       3
    x3        R29       3
    x3        R30       3
    x3        R31       3
    x3        R32       3
    x3        R33       3
    x3        R34       3
    x3        R35       3
    x3        R36       2
    x4        OBJ       1
    x4        R1        1
    x4        R3        1
    x4        R4        1
    x4        R5        1
    x4        R7        1
    x4        R9        4
    x4        R10       2
    x4        R11       1
    x4        R12       2
    x4        R13       2
    x4        R14       2
    x4        R15       2
    x4        R16       2
    x4        R17       2
    x4        R18       2
    x4        R19       4
    x4        R20       3
    x4        R21       4
    x4        R22       4
    x4        R23       4
    x4        R24       4
    x4        R25       4
    x4        R26       4
    x4        R27       4
    x4        R28       3
    x4        R29       2
    x4        R30       3
    x4        R31       3
    x4        R32       3
    x4        R33       3
    x4        R34       3
    x4        R35       3
    x4        R36       3
    x5        OBJ       1
    x5        R2        1
    x5        R3        1
    x5        R4        1
    x5        R5        1
    x5        R8        1
    x5        R9        4
    x5        R10       2
    x5        R11       2
    x5        R12       1
    x5        R13       2
    x5        R14       2
    x5        R15       2
    x5        R16       2
    x5        R17       2
    x5        R18       2
    x5        R19       4
    x5        R20       4
    x5        R21       3
    x5        R22       4
    x5        R23       4
    x5        R24       4
    x5        R25       4
    x5        R26       4
    x5        R27       4
    x5        R28       3
    x5        R29       3
    x5        R30       2
    x5        R31       3
    x5        R32       3
    x5        R33       3
    x5        R34       3
    x5        R35       3
    x5        R36       3
    x6        OBJ       1
    x6        R0        1
    x6        R3        1
    x6        R6        1
    x6        R7        1
    x6        R8        1
    x6        R9        4
    x6        R10       2
    x6        R11       2
    x6        R12       2
    x6        R13       1
    x6        R14       2
    x6        R15       2
    x6        R16       2
    x6        R17       2
    x6        R18       2
    x6        R19       4
    x6        R20       4
    x6        R21       4
    x6        R22       3
    x6        R23       4
    x6        R24       4
    x6        R25       4
    x6        R26       4
    x6        R27       4
    x6        R28       3
    x6        R29       3
    x6        R30       3
    x6        R31       2
    x6        R32       3
    x6        R33       3
    x6        R34       3
    x6        R35       3
    x6        R36       3
    x7        OBJ       1
    x7        R1        1
    x7        R4        1
    x7        R6        1
    x7        R7        1
    x7        R8        1
    x7        R9        4
    x7        R10       2
    x7        R11       2
    x7        R12       2
    x7        R13       2
    x7        R14       2
    x7        R15       1
    x7        R16       2
    x7        R17       2
    x7        R18       2
    x7        R19       4
    x7        R20       4
    x7        R21       4
    x7        R22       4
    x7        R23       4
    x7        R24       3
    x7        R25       4
    x7        R26       4
    x7        R27       4
    x7        R28       3
    x7        R29       3
    x7        R30       3
    x7        R31       3
    x7        R32       3
    x7        R33       2
    x7        R34       3
    x7        R35       3
    x7        R36       3
    x8        OBJ       1
    x8        R2        1
    x8        R5        1
    x8        R6        1
    x8        R7        1
    x8        R8        1
    x8        R9        4
    x8        R10       2
    x8        R11       2
    x8        R12       2
    x8        R13       2
    x8        R14       2
    x8        R15       2
    x8        R16       2
    x8        R17       1
    x8        R18       2
    x8        R19       4
    x8        R20       4
    x8        R21       4
    x8        R22       4
    x8        R23       4
    x8        R24       4
    x8        R25       4
    x8        R26       3
    x8        R27       4
    x8        R28       3
    x8        R29       3
    x8        R30       3
    x8        R31       3
    x8        R32       3
    x8        R33       3
    x8        R34       3
    x8        R35       2
    x8        R36       3
RHS
    RHS1      R0        1
    RHS1      R1        1
    RHS1      R2        1
    RHS1      R3        1
    RHS1      R4        1
    RHS1      R5        1
    RHS1      R6        1
    RHS1      R7        1
    RHS1      R8        1
    RHS1      R9        8
    RHS1      R10       4
    RHS1      R11       4
    RHS1      R12       4
    RHS1      R13       4
    RHS1      R14       4
    RHS1      R15       4
    RHS1      R16       4
    RHS1      R17       4
    RHS1      R18       4
    RHS1      R19       8
    RHS1      R20       8
    RHS1      R21       8
    RHS1      R22       8
    RHS1      R23       8
    RHS1      R24       8
    RHS1      R25       8
    RHS1      R26       8
    RHS1      R27       8
    RHS1      R28       6
    RHS1      R29       6
    RHS1      R30       6
    RHS1      R31       6
    RHS1      R32       6
    RHS1      R33       6
    RHS1      R34       6
    RHS1      R35       6
    RHS1      R36       6
BOUNDS
 UP BND1      x0        1
 UP BND1      x1        1
 UP BND1      x2        1
 UP BND1      x3        1
 UP BND1      x4        1
 UP BND1      x5        1
 UP BND1      x6        1
 UP BND1      x7        1
 UP BND1      x8        1
ENDATA
